
  12    4
  10   10   10   10

   0   0   0   0   0   3 2 3 4 
   3  10  10  10  10   2 6 5 
   3  10  10  10  10   1 5 
   8  10  10  10  10   1 5 
   2  10  10  10  10   4 11 10 8 7 
   2  10  10  10  10   4 11 10 8 7 
   5  10  10  10  10   1 9 
   5  10  10  10  10   1 9 
   1  10  10  10  10   1 12
   1  10  10  10  10   1 12
   1  10  10  10  10   1 12
   0   0   0   0   0   0 
